WARNING: for repeatability, setting FPU to use double precision
============================[ Problem Statistics ]=============================
|                                                                             |
|  Number of variables:          8399                                         |
|  Number of clauses:          117602                                         |
|  Parse time:                   0.04 s                                       |
|  Simplification time:          0.00 s                                       |
|                                                                             |
===============================================================================
Solved by simplification
restarts              : 0
conflicts             : 0              (0 /sec)
decisions             : 0              (-nan % random) (0 /sec)
propagations          : 6891           (172499 /sec)
conflict literals     : 0              (-nan % deleted)
Memory used           : 27.00 MB
CPU time              : 0.039948 s

UNSATISFIABLE
